53 47 44 44 44 41 38 46 50 53 45 46 52 51 55 47 46 54 58 46 50 53 44 50 51 55 34 45 57 49 41 47 50 52 43 56 56 53 46 48 54 48 54 63 51 52 58 48 46 51 49 55 49 57 52 53 51 54 45 42 45 48 55 57 43 50 44 41 55 60 45 45 57 37 50 46 54 37 58 45 47 49 50 53 43 49 46 52 53 49 50 58 45 53 45 50 54 53 49 47 